600 1
408 2
391 3
410 4
391 5
387 6
390 7
410 8
395 9
396 10
409 11
415 12
405 13
413 14
389 15
393 16
404 17
391 18
405 19
392 20
413 21
388 22
392 23
411 24
409 25
387 26
413 27
440 28
385 29
410 30
390 31
390 32
